c CNF file corresponding to a (partial) station packing problem.
p cnf 2136 229
1 2 3 4 5 6 7 8 9 10 11 12 13 14 0
-1 -2 0
-1 -3 0
-1 -4 0
-1 -5 0
-1 -6 0
-1 -7 0
-1 -8 0
-1 -9 0
-1 -10 0
-1 -11 0
-1 -12 0
-1 -13 0
-1 -14 0
-2 -3 0
-2 -4 0
-2 -5 0
-2 -6 0
-2 -7 0
-2 -8 0
-2 -9 0
-2 -10 0
-2 -11 0
-2 -12 0
-2 -13 0
-2 -14 0
-3 -4 0
-3 -5 0
-3 -6 0
-3 -7 0
-3 -8 0
-3 -9 0
-3 -10 0
-3 -11 0
-3 -12 0
-3 -13 0
-3 -14 0
-4 -5 0
-4 -6 0
-4 -7 0
-4 -8 0
-4 -9 0
-4 -10 0
-4 -11 0
-4 -12 0
-4 -13 0
-4 -14 0
-5 -6 0
-5 -7 0
-5 -8 0
-5 -9 0
-5 -10 0
-5 -11 0
-5 -12 0
-5 -13 0
-5 -14 0
-6 -7 0
-6 -8 0
-6 -9 0
-6 -10 0
-6 -11 0
-6 -12 0
-6 -13 0
-6 -14 0
-7 -8 0
-7 -9 0
-7 -10 0
-7 -11 0
-7 -12 0
-7 -13 0
-7 -14 0
-8 -9 0
-8 -10 0
-8 -11 0
-8 -12 0
-8 -13 0
-8 -14 0
-9 -10 0
-9 -11 0
-9 -12 0
-9 -13 0
-9 -14 0
-10 -11 0
-10 -12 0
-10 -13 0
-10 -14 0
-11 -12 0
-11 -13 0
-11 -14 0
-12 -13 0
-12 -14 0
-13 -14 0
2120 2121 2122 2123 2124 2125 2126 2127 2128 2129 2130 2131 2132 2133 2134 2135 2136 0
-2120 -2121 0
-2120 -2122 0
-2120 -2123 0
-2120 -2124 0
-2120 -2125 0
-2120 -2126 0
-2120 -2127 0
-2120 -2128 0
-2120 -2129 0
-2120 -2130 0
-2120 -2131 0
-2120 -2132 0
-2120 -2133 0
-2120 -2134 0
-2120 -2135 0
-2120 -2136 0
-2121 -2122 0
-2121 -2123 0
-2121 -2124 0
-2121 -2125 0
-2121 -2126 0
-2121 -2127 0
-2121 -2128 0
-2121 -2129 0
-2121 -2130 0
-2121 -2131 0
-2121 -2132 0
-2121 -2133 0
-2121 -2134 0
-2121 -2135 0
-2121 -2136 0
-2122 -2123 0
-2122 -2124 0
-2122 -2125 0
-2122 -2126 0
-2122 -2127 0
-2122 -2128 0
-2122 -2129 0
-2122 -2130 0
-2122 -2131 0
-2122 -2132 0
-2122 -2133 0
-2122 -2134 0
-2122 -2135 0
-2122 -2136 0
-2123 -2124 0
-2123 -2125 0
-2123 -2126 0
-2123 -2127 0
-2123 -2128 0
-2123 -2129 0
-2123 -2130 0
-2123 -2131 0
-2123 -2132 0
-2123 -2133 0
-2123 -2134 0
-2123 -2135 0
-2123 -2136 0
-2124 -2125 0
-2124 -2126 0
-2124 -2127 0
-2124 -2128 0
-2124 -2129 0
-2124 -2130 0
-2124 -2131 0
-2124 -2132 0
-2124 -2133 0
-2124 -2134 0
-2124 -2135 0
-2124 -2136 0
-2125 -2126 0
-2125 -2127 0
-2125 -2128 0
-2125 -2129 0
-2125 -2130 0
-2125 -2131 0
-2125 -2132 0
-2125 -2133 0
-2125 -2134 0
-2125 -2135 0
-2125 -2136 0
-2126 -2127 0
-2126 -2128 0
-2126 -2129 0
-2126 -2130 0
-2126 -2131 0
-2126 -2132 0
-2126 -2133 0
-2126 -2134 0
-2126 -2135 0
-2126 -2136 0
-2127 -2128 0
-2127 -2129 0
-2127 -2130 0
-2127 -2131 0
-2127 -2132 0
-2127 -2133 0
-2127 -2134 0
-2127 -2135 0
-2127 -2136 0
-2128 -2129 0
-2128 -2130 0
-2128 -2131 0
-2128 -2132 0
-2128 -2133 0
-2128 -2134 0
-2128 -2135 0
-2128 -2136 0
-2129 -2130 0
-2129 -2131 0
-2129 -2132 0
-2129 -2133 0
-2129 -2134 0
-2129 -2135 0
-2129 -2136 0
-2130 -2131 0
-2130 -2132 0
-2130 -2133 0
-2130 -2134 0
-2130 -2135 0
-2130 -2136 0
-2131 -2132 0
-2131 -2133 0
-2131 -2134 0
-2131 -2135 0
-2131 -2136 0
-2132 -2133 0
-2132 -2134 0
-2132 -2135 0
-2132 -2136 0
-2133 -2134 0
-2133 -2135 0
-2133 -2136 0
-2134 -2135 0
-2134 -2136 0
-2135 -2136 0
